c Théorie de l'exercice 4 de la feuille de TD
c
p cnf 8 6
c
c fi1 => x1 v x2 v x3
1 2 3 0
c
c fi2 => x1 v x6 v -x7
1 6 -7 0
c
c fi3 => x1 v x8
1 8 0
c
c fi4 => -x3 v x4 v -x6
-3 4 -6 0
c
c fi5 => -x5 v x6 v x7
-5 6 7 0
c
c fi6 => x5 v x6 v -x8
5 6 -8 0